NAME          COPTPROB
OBJSENSE
  MIN
ROWS
 N  __OBJ___
 L  C0      
 L  C4      
 L  C5      
 L  C6      
 L  C7      
 L  C8      
 L  C9      
 L  C13     
 L  C15     
 L  C16     
 L  C19     
 L  C22     
 L  C25     
 L  C27     
 L  C28     
 L  C29     
 L  C30     
 L  C31     
 L  C34     
 L  C38     
 L  C40     
 L  C45     
 L  C49     
 L  C51     
 L  C53     
 L  C55     
 L  C57     
 L  C58     
 L  C59     
 L  C62     
 L  C63     
 L  C64     
 L  C68     
 L  C72     
 L  C73     
 L  C74     
 L  C77     
 L  C78     
 L  C79     
 L  C80     
 L  C82     
 L  C83     
 L  C84     
 L  C86     
 L  C89     
 L  C91     
 L  C97     
 L  C100    
 L  C101    
 L  C102    
 L  C104    
 L  C105    
 L  C107    
 L  C108    
 L  C109    
 L  C110    
 L  C111    
 L  C115    
 L  C116    
 L  C121    
 L  C122    
 L  C128    
 L  C129    
 L  C130    
 L  C132    
 L  C133    
 L  C134    
 L  C135    
 L  C140    
 L  C141    
 L  C146    
 L  C148    
 L  C149    
 L  C151    
 L  C152    
 L  C154    
 L  C160    
 L  C161    
 L  C162    
 L  C166    
 L  C169    
 L  C174    
 L  C177    
 L  C178    
 L  C179    
 L  C181    
 L  C182    
 L  C184    
 L  C187    
 L  C189    
 L  C190    
 L  C191    
 L  C192    
 L  C193    
 L  C194    
 L  C195    
 L  C198    
 L  C199    
 L  C202    
 L  C204    
 L  C205    
 L  C206    
 L  C209    
 L  C210    
 L  C211    
 L  C213    
 L  C215    
 L  C217    
 L  C218    
 L  C219    
 L  C220    
 L  C221    
 L  C222    
 L  C223    
 L  C225    
 L  C229    
 L  C230    
 L  C231    
 L  C234    
 L  C237    
 L  C238    
 L  C239    
 L  C240    
 L  C241    
 L  C242    
 L  C243    
 L  C245    
 L  C246    
 L  C247    
 L  C249    
 L  C250    
 L  C253    
 L  C254    
 L  C255    
 L  C257    
 L  C258    
 L  C261    
 L  C262    
 L  C263    
 L  C267    
 L  C268    
 L  C269    
 L  C280    
 L  C281    
 L  C283    
 L  C284    
 L  C286    
 L  C289    
 L  C290    
 L  C291    
 L  C292    
 L  C293    
 L  C294    
 L  C296    
 L  C297    
 L  C299    
 L  C300    
 L  C302    
 L  C303    
 L  C304    
 L  C305    
 L  C306    
 L  C310    
 L  C312    
 L  C315    
 L  C322    
 L  C324    
 L  C325    
 L  C326    
 L  C327    
 L  C328    
 L  C329    
 L  C330    
 L  C331    
 L  C333    
 L  C335    
 L  C341    
 L  C342    
 L  C343    
 L  C344    
 L  C345    
 L  C347    
 L  C348    
 L  C352    
 L  C356    
 L  C357    
 L  C358    
 L  C359    
 L  C360    
 L  C365    
 L  C366    
 L  C372    
 L  C373    
 L  C374    
 L  C376    
 L  C377    
 L  C380    
 L  C381    
 L  C382    
 L  C383    
 L  C384    
 L  C385    
 L  C386    
 L  C387    
 L  C388    
 L  C389    
 L  C390    
 L  C393    
 L  C394    
 L  C397    
 L  C398    
 L  C399    
COLUMNS
    MARKER    'MARKER'                 'INTORG'
    x3        __OBJ___  627
    x3        C151      -1
    x3        C381      -1
    x7        __OBJ___  167
    x7        C194      -1
    x7        C269      -1
    x8        __OBJ___  54
    x8        C38       -1
    x8        C53       -1
    x8        C105      -1
    x9        __OBJ___  740
    x9        C72       -1
    x9        C296      -1
    x10       __OBJ___  485
    x10       C64       -1
    x10       C192      -1
    x10       C220      -1
    x10       C331      -1
    x10       C357      -1
    x11       __OBJ___  809
    x11       C6        -1
    x11       C129      -1
    x11       C257      -1
    x11       C290      -1
    x12       __OBJ___  887
    x12       C330      -1
    x12       C376      -1
    x12       C377      -1
    x13       __OBJ___  343
    x13       C4        -1
    x13       C189      -1
    x13       C211      -1
    x13       C305      -1
    x13       C387      -1
    x15       __OBJ___  202
    x15       C84       -1
    x15       C240      -1
    x15       C359      -1
    x17       __OBJ___  765
    x17       C82       -1
    x17       C245      -1
    x17       C366      -1
    x17       C384      -1
    x18       __OBJ___  360
    x18       C13       -1
    x18       C91       -1
    x18       C101      -1
    x18       C152      -1
    x18       C160      -1
    x18       C202      -1
    x18       C315      -1
    x19       __OBJ___  820
    x19       C134      -1
    x19       C195      -1
    x19       C382      -1
    x20       __OBJ___  194
    x20       C79       -1
    x20       C281      -1
    x23       __OBJ___  372
    x23       C30       -1
    x23       C51       -1
    x23       C238      -1
    x24       __OBJ___  743
    x24       C62       -1
    x24       C86       -1
    x24       C116      -1
    x26       __OBJ___  404
    x26       C182      -1
    x26       C343      -1
    x29       __OBJ___  550
    x29       C5        -1
    x29       C181      -1
    x29       C261      -1
    x29       C267      -1
    x31       __OBJ___  419
    x31       C55       -1
    x31       C110      -1
    x31       C187      -1
    x31       C206      -1
    x31       C249      -1
    x31       C327      -1
    x33       __OBJ___  629
    x33       C77       -1
    x33       C89       -1
    x33       C191      -1
    x33       C258      -1
    x35       __OBJ___  860
    x35       C19       -1
    x35       C135      -1
    x35       C388      -1
    x37       __OBJ___  131
    x37       C22       -1
    x37       C130      -1
    x37       C243      -1
    x38       __OBJ___  459
    x38       C8        -1
    x38       C141      -1
    x38       C310      -1
    x40       __OBJ___  274
    x40       C115      -1
    x40       C218      -1
    x41       __OBJ___  373
    x41       C59       -1
    x41       C221      -1
    x41       C237      -1
    x41       C335      -1
    x42       __OBJ___  161
    x42       C83       -1
    x42       C109      -1
    x42       C213      -1
    x42       C283      -1
    x43       __OBJ___  344
    x43       C128      -1
    x43       C289      -1
    x43       C389      -1
    x45       __OBJ___  295
    x45       C34       -1
    x45       C154      -1
    x45       C242      -1
    x45       C358      -1
    x45       C393      -1
    x46       __OBJ___  138
    x46       C49       -1
    x46       C303      -1
    x48       __OBJ___  146
    x48       C78       -1
    x48       C268      -1
    x48       C326      -1
    x50       __OBJ___  430
    x50       C0        -1
    x50       C312      -1
    x50       C390      -1
    x51       __OBJ___  842
    x51       C29       -1
    x51       C121      -1
    x51       C347      -1
    x52       __OBJ___  655
    x52       C231      -1
    x52       C234      -1
    x52       C292      -1
    x52       C300      -1
    x52       C380      -1
    x54       __OBJ___  148
    x54       C74       -1
    x54       C122      -1
    x54       C179      -1
    x54       C222      -1
    x56       __OBJ___  437
    x56       C15       -1
    x56       C31       -1
    x56       C293      -1
    x56       C342      -1
    x59       __OBJ___  678
    x59       C68       -1
    x59       C80       -1
    x59       C149      -1
    x59       C225      -1
    x59       C284      -1
    x59       C383      -1
    x61       __OBJ___  783
    x61       C9        -1
    x61       C204      -1
    x61       C365      -1
    x61       C372      -1
    x63       __OBJ___  936
    x63       C178      -1
    x63       C254      -1
    x66       __OBJ___  592
    x66       C58       -1
    x66       C63       -1
    x66       C169      -1
    x66       C217      -1
    x66       C239      -1
    x66       C356      -1
    x71       __OBJ___  725
    x71       C199      -1
    x71       C205      -1
    x71       C286      -1
    x72       __OBJ___  894
    x72       C40       -1
    x72       C161      -1
    x72       C198      -1
    x72       C385      -1
    x74       __OBJ___  218
    x74       C190      -1
    x74       C394      -1
    x75       __OBJ___  524
    x75       C57       -1
    x75       C352      -1
    x77       __OBJ___  800
    x77       C108      -1
    x77       C140      -1
    x77       C373      -1
    x78       __OBJ___  311
    x78       C133      -1
    x78       C262      -1
    x78       C294      -1
    x80       __OBJ___  110
    x80       C325      -1
    x80       C344      -1
    x82       __OBJ___  82
    x82       C97       -1
    x82       C299      -1
    x82       C328      -1
    x84       __OBJ___  517
    x84       C107      -1
    x84       C241      -1
    x84       C306      -1
    x84       C345      -1
    x88       __OBJ___  187
    x88       C27       -1
    x88       C102      -1
    x89       __OBJ___  810
    x89       C166      -1
    x89       C215      -1
    x89       C253      -1
    x89       C329      -1
    x90       __OBJ___  749
    x90       C174      -1
    x90       C223      -1
    x90       C322      -1
    x91       __OBJ___  482
    x91       C209      -1
    x91       C333      -1
    x91       C374      -1
    x91       C397      -1
    x92       __OBJ___  494
    x92       C45       -1
    x92       C193      -1
    x92       C210      -1
    x92       C229      -1
    x92       C246      -1
    x92       C250      -1
    x92       C304      -1
    x93       __OBJ___  987
    x93       C73       -1
    x93       C148      -1
    x93       C360      -1
    x93       C398      -1
    x94       __OBJ___  479
    x94       C16       -1
    x94       C25       -1
    x94       C280      -1
    x94       C348      -1
    x99       __OBJ___  959
    x99       C38       -1
    x99       C169      -1
    x99       C290      -1
    x100      __OBJ___  547
    x100      C80       -1
    x100      C174      -1
    x100      C250      -1
    x101      __OBJ___  832
    x101      C174      -1
    x101      C213      -1
    x101      C222      -1
    x101      C247      -1
    x101      C310      -1
    x102      __OBJ___  146
    x102      C13       -1
    x102      C245      -1
    x103      __OBJ___  128
    x103      C110      -1
    x103      C160      -1
    x103      C292      -1
    x104      __OBJ___  260
    x104      C79       -1
    x104      C80       -1
    x104      C245      -1
    x104      C324      -1
    x104      C328      -1
    x104      C348      -1
    x106      __OBJ___  94
    x106      C148      -1
    x106      C310      -1
    x106      C315      -1
    x108      __OBJ___  133
    x108      C187      -1
    x108      C322      -1
    x110      __OBJ___  465
    x110      C31       -1
    x110      C146      -1
    x110      C387      -1
    x111      __OBJ___  59
    x111      C0        -1
    x111      C27       -1
    x111      C53       -1
    x111      C209      -1
    x112      __OBJ___  251
    x112      C101      -1
    x112      C161      -1
    x112      C177      -1
    x112      C357      -1
    x113      __OBJ___  688
    x113      C135      -1
    x115      __OBJ___  921
    x115      C202      -1
    x115      C280      -1
    x115      C324      -1
    x115      C385      -1
    x116      __OBJ___  530
    x116      C57       -1
    x116      C110      -1
    x119      __OBJ___  314
    x119      C55       -1
    x119      C82       -1
    x119      C129      -1
    x120      __OBJ___  907
    x120      C73       -1
    x120      C253      -1
    x121      __OBJ___  85
    x121      C149      -1
    x122      __OBJ___  112
    x122      C27       -1
    x122      C53       -1
    x122      C100      -1
    x122      C105      -1
    x122      C115      -1
    x122      C342      -1
    x122      C376      -1
    x123      __OBJ___  566
    x123      C78       -1
    x123      C280      -1
    x126      __OBJ___  157
    x126      C263      -1
    x126      C302      -1
    x126      C306      -1
    x128      __OBJ___  19
    x128      C111      -1
    x128      C146      -1
    x128      C225      -1
    x128      C283      -1
    x128      C393      -1
    x131      __OBJ___  835
    x131      C130      -1
    x131      C286      -1
    x131      C356      -1
    x132      __OBJ___  613
    x132      C255      -1
    x132      C268      -1
    x132      C366      -1
    x133      __OBJ___  581
    x133      C115      -1
    x133      C174      -1
    x133      C210      -1
    x134      __OBJ___  983
    x134      C253      -1
    x134      C333      -1
    x134      C399      -1
    x137      __OBJ___  27
    x137      C86       -1
    x137      C104      -1
    x137      C192      -1
    x137      C246      -1
    x137      C341      -1
    x138      __OBJ___  267
    x138      C284      -1
    x138      C373      -1
    x139      __OBJ___  120
    x139      C31       -1
    x139      C374      -1
    x141      __OBJ___  351
    x141      C82       -1
    x141      C242      -1
    x142      __OBJ___  203
    x142      C398      -1
    x146      __OBJ___  38
    x146      C13       -1
    x146      C184      -1
    x146      C344      -1
    x147      __OBJ___  86
    x147      C262      -1
    x147      C384      -1
    x148      __OBJ___  433
    x148      C169      -1
    x150      __OBJ___  884
    x150      C152      -1
    x150      C267      -1
    x150      C305      -1
    x152      __OBJ___  23
    x152      C190      -1
    x152      C344      -1
    x152      C389      -1
    x153      __OBJ___  439
    x153      C108      -1
    x153      C365      -1
    x155      __OBJ___  921
    x155      C128      -1
    x155      C135      -1
    x155      C293      -1
    x156      __OBJ___  823
    x156      C53       -1
    x156      C160      -1
    x156      C174      -1
    x156      C300      -1
    x157      __OBJ___  37
    x157      C63       -1
    x157      C111      -1
    x157      C331      -1
    x160      __OBJ___  326
    x160      C342      -1
    x160      C383      -1
    x160      C397      -1
    x161      __OBJ___  205
    x161      C8        -1
    x161      C234      -1
    x161      C303      -1
    x163      __OBJ___  171
    x163      C86       -1
    x163      C263      -1
    x163      C268      -1
    x163      C296      -1
    x168      __OBJ___  261
    x168      C177      -1
    x168      C222      -1
    x168      C310      -1
    x168      C312      -1
    x169      __OBJ___  826
    x169      C6        -1
    x169      C253      -1
    x169      C297      -1
    x170      __OBJ___  86
    x170      C58       -1
    x170      C91       -1
    x170      C241      -1
    x172      __OBJ___  148
    x172      C74       -1
    x172      C86       -1
    x172      C130      -1
    x172      C294      -1
    x173      __OBJ___  234
    x173      C305      -1
    x177      __OBJ___  907
    x177      C194      -1
    x177      C217      -1
    x177      C290      -1
    x180      __OBJ___  690
    x180      C53       -1
    x180      C78       -1
    x180      C174      -1
    x180      C177      -1
    x181      __OBJ___  644
    x181      C34       -1
    x181      C189      -1
    x181      C198      -1
    x181      C374      -1
    x182      __OBJ___  80
    x182      C6        -1
    x182      C8        -1
    x182      C38       -1
    x183      __OBJ___  123
    x183      C177      -1
    x183      C181      -1
    x184      __OBJ___  748
    x184      C267      -1
    x184      C312      -1
    x184      C347      -1
    x185      __OBJ___  338
    x185      C184      -1
    x185      C189      -1
    x185      C191      -1
    x185      C281      -1
    x186      __OBJ___  787
    x186      C25       -1
    x186      C258      -1
    x186      C262      -1
    x186      C327      -1
    x187      __OBJ___  872
    x187      C204      -1
    x187      C372      -1
    x187      C398      -1
    x190      __OBJ___  964
    x190      C9        -1
    x190      C322      -1
    x190      C366      -1
    x191      __OBJ___  335
    x191      C105      -1
    x191      C237      -1
    x191      C376      -1
    x192      __OBJ___  159
    x192      C97       -1
    x192      C202      -1
    x192      C223      -1
    x192      C335      -1
    x193      __OBJ___  4
    x193      C79       -1
    x193      C100      -1
    x193      C215      -1
    x194      __OBJ___  259
    x194      C322      -1
    x194      C341      -1
    x194      C373      -1
    x198      __OBJ___  104
    x198      C28       -1
    x198      C261      -1
    x202      __OBJ___  199
    x202      C19       -1
    x202      C220      -1
    x202      C341      -1
    x204      __OBJ___  519
    x204      C29       -1
    x204      C80       -1
    x204      C240      -1
    x206      __OBJ___  78
    x206      C4        -1
    x206      C7        -1
    x209      __OBJ___  324
    x209      C49       -1
    x209      C399      -1
    x212      __OBJ___  508
    x212      C34       -1
    x212      C63       -1
    x212      C296      -1
    x212      C383      -1
    x215      __OBJ___  586
    x215      C30       -1
    x215      C219      -1
    x215      C345      -1
    x215      C365      -1
    x219      __OBJ___  740
    x219      C267      -1
    x219      C291      -1
    x219      C292      -1
    x219      C343      -1
    x220      __OBJ___  821
    x220      C5        -1
    x220      C55       -1
    x220      C384      -1
    x220      C394      -1
    x221      __OBJ___  205
    x221      C31       -1
    x221      C297      -1
    x222      __OBJ___  397
    x222      C322      -1
    x222      C366      -1
    x223      __OBJ___  661
    x223      C169      -1
    x223      C297      -1
    x223      C341      -1
    x229      __OBJ___  967
    x229      C49       -1
    x229      C63       -1
    x229      C91       -1
    x229      C152      -1
    x229      C178      -1
    x229      C326      -1
    x230      __OBJ___  17
    x230      C386      -1
    x231      __OBJ___  240
    x231      C220      -1
    x231      C293      -1
    x234      __OBJ___  750
    x234      C253      -1
    x237      __OBJ___  15
    x237      C58       -1
    x237      C389      -1
    x239      __OBJ___  166
    x239      C58       -1
    x239      C377      -1
    x240      __OBJ___  169
    x240      C86       -1
    x240      C221      -1
    x241      __OBJ___  686
    x241      C327      -1
    x241      C344      -1
    x241      C356      -1
    x241      C385      -1
    x242      __OBJ___  251
    x242      C238      -1
    x242      C289      -1
    x242      C325      -1
    x243      __OBJ___  330
    x243      C77       -1
    x243      C206      -1
    x243      C229      -1
    x247      __OBJ___  284
    x247      C151      -1
    x248      __OBJ___  119
    x248      C109      -1
    x248      C149      -1
    x248      C331      -1
    x249      __OBJ___  872
    x249      C40       -1
    x249      C86       -1
    x249      C360      -1
    x253      __OBJ___  520
    x253      C9        -1
    x253      C62       -1
    x254      __OBJ___  434
    x254      C365      -1
    x257      __OBJ___  63
    x257      C45       -1
    x257      C86       -1
    x258      __OBJ___  459
    x258      C292      -1
    x258      C297      -1
    x258      C310      -1
    x258      C345      -1
    x259      __OBJ___  887
    x259      C15       -1
    x259      C140      -1
    x259      C386      -1
    x260      __OBJ___  425
    x260      C116      -1
    x260      C122      -1
    x260      C162      -1
    x263      __OBJ___  975
    x263      C72       -1
    x263      C100      -1
    x263      C151      -1
    x265      __OBJ___  389
    x265      C166      -1
    x265      C257      -1
    x265      C299      -1
    x265      C358      -1
    x270      __OBJ___  702
    x270      C243      -1
    x270      C381      -1
    x273      __OBJ___  418
    x273      C5        -1
    x273      C352      -1
    x273      C393      -1
    x274      __OBJ___  172
    x274      C177      -1
    x274      C326      -1
    x278      __OBJ___  75
    x278      C28       -1
    x278      C225      -1
    x278      C229      -1
    x278      C357      -1
    x281      __OBJ___  208
    x281      C210      -1
    x281      C242      -1
    x282      __OBJ___  233
    x282      C342      -1
    x282      C383      -1
    x283      __OBJ___  920
    x283      C215      -1
    x283      C254      -1
    x283      C388      -1
    x284      __OBJ___  684
    x284      C199      -1
    x284      C225      -1
    x284      C231      -1
    x284      C326      -1
    x284      C341      -1
    x285      __OBJ___  49
    x285      C91       -1
    x297      __OBJ___  42
    x297      C132      -1
    x297      C189      -1
    x297      C192      -1
    x298      __OBJ___  956
    x298      C104      -1
    x298      C193      -1
    x298      C304      -1
    x300      __OBJ___  726
    x300      C19       -1
    x300      C57       -1
    x300      C191      -1
    x302      __OBJ___  522
    x302      C51       -1
    x302      C68       -1
    x302      C107      -1
    x302      C249      -1
    x302      C343      -1
    x302      C390      -1
    x303      __OBJ___  88
    x303      C22       -1
    x303      C302      -1
    x304      __OBJ___  634
    x304      C15       -1
    x304      C330      -1
    x304      C359      -1
    x306      __OBJ___  217
    x306      C238      -1
    x309      __OBJ___  674
    x309      C134      -1
    x309      C141      -1
    x311      __OBJ___  272
    x311      C247      -1
    x311      C328      -1
    x311      C342      -1
    x314      __OBJ___  252
    x314      C109      -1
    x314      C132      -1
    x314      C205      -1
    x314      C247      -1
    x314      C310      -1
    x316      __OBJ___  192
    x316      C13       -1
    x316      C221      -1
    x316      C312      -1
    x318      __OBJ___  179
    x318      C162      -1
    x318      C182      -1
    x325      __OBJ___  25
    x325      C63       -1
    x325      C205      -1
    x325      C206      -1
    x325      C230      -1
    x325      C239      -1
    x327      __OBJ___  459
    x327      C209      -1
    x327      C217      -1
    x329      __OBJ___  824
    x329      C133      -1
    x329      C140      -1
    x329      C184      -1
    x329      C304      -1
    x332      __OBJ___  418
    x332      C73       -1
    x332      C97       -1
    x332      C293      -1
    x333      __OBJ___  469
    x333      C73       -1
    x333      C148      -1
    x333      C195      -1
    x333      C220      -1
    x333      C324      -1
    x334      __OBJ___  364
    x334      C223      -1
    x334      C385      -1
    x336      __OBJ___  102
    x336      C55       -1
    x336      C59       -1
    x336      C91       -1
    x337      __OBJ___  310
    x337      C84       -1
    x337      C101      -1
    x338      __OBJ___  390
    x338      C102      -1
    x338      C348      -1
    x338      C394      -1
    x339      __OBJ___  127
    x339      C97       -1
    x339      C189      -1
    x339      C255      -1
    x340      __OBJ___  173
    x340      C231      -1
    x340      C322      -1
    x340      C328      -1
    x342      __OBJ___  359
    x342      C86       -1
    x342      C305      -1
    x342      C324      -1
    x344      __OBJ___  913
    x344      C177      -1
    x344      C204      -1
    x344      C394      -1
    x345      __OBJ___  237
    x345      C97       -1
    x345      C108      -1
    x345      C257      -1
    x345      C374      -1
    x347      __OBJ___  223
    x347      C160      -1
    x347      C245      -1
    x348      __OBJ___  470
    x348      C240      -1
    x348      C333      -1
    x348      C384      -1
    x353      __OBJ___  856
    x353      C38       -1
    x353      C239      -1
    x353      C329      -1
    x353      C344      -1
    x353      C348      -1
    x354      __OBJ___  435
    x354      C9        -1
    x354      C79       -1
    x354      C365      -1
    x357      __OBJ___  303
    x357      C82       -1
    x357      C83       -1
    x357      C296      -1
    x358      __OBJ___  163
    x358      C211      -1
    x358      C242      -1
    x358      C291      -1
    x358      C342      -1
    x361      __OBJ___  76
    x361      C246      -1
    x361      C352      -1
    x362      __OBJ___  433
    x362      C107      -1
    x362      C284      -1
    x369      __OBJ___  331
    x369      C64       -1
    x369      C219      -1
    x373      __OBJ___  124
    x373      C293      -1
    x373      C380      -1
    x373      C382      -1
    x373      C384      -1
    x376      __OBJ___  507
    x376      C89       -1
    x376      C210      -1
    x376      C382      -1
    x377      __OBJ___  347
    x377      C16       -1
    x377      C82       -1
    x379      __OBJ___  676
    x379      C15       -1
    x379      C195      -1
    x379      C210      -1
    x384      __OBJ___  528
    x384      C193      -1
    x384      C218      -1
    x384      C344      -1
    x387      __OBJ___  645
    x387      C306      -1
    x387      C330      -1
    x387      C384      -1
    x389      __OBJ___  153
    x389      C223      -1
    x389      C310      -1
    x391      __OBJ___  877
    x391      C7        -1
    x391      C83       -1
    x391      C199      -1
    x391      C365      -1
    x392      __OBJ___  592
    x392      C191      -1
    x392      C258      -1
    x392      C296      -1
    x392      C390      -1
    x393      __OBJ___  126
    x393      C154      -1
    x393      C162      -1
    x393      C386      -1
    x394      __OBJ___  232
    x394      C19       -1
    x394      C53       -1
    x394      C80       -1
    x394      C134      -1
    x394      C179      -1
    x394      C220      -1
    x394      C269      -1
    x394      C372      -1
    x395      __OBJ___  964
    x395      C45       -1
    x395      C51       -1
    x395      C134      -1
    x395      C219      -1
    x396      __OBJ___  329
    x396      C110      -1
    x396      C166      -1
    x396      C230      -1
    x398      __OBJ___  362
    x398      C97       -1
    x398      C166      -1
    x398      C240      -1
    x399      __OBJ___  270
    x399      C121      -1
    x399      C292      -1
    x399      C297      -1
    x399      C342      -1
    MARKER    'MARKER'                 'INTEND'
RHS
    RHS       __OBJ___  -12739
    RHS       C0        -1
    RHS       C4        -1
    RHS       C5        -1
    RHS       C6        -1
    RHS       C7        -1
    RHS       C8        -1
    RHS       C9        -1
    RHS       C13       -1
    RHS       C15       -1
    RHS       C16       -1
    RHS       C19       -1
    RHS       C22       -1
    RHS       C25       -1
    RHS       C27       -1
    RHS       C28       -1
    RHS       C29       -1
    RHS       C30       -1
    RHS       C31       -1
    RHS       C34       -1
    RHS       C38       -1
    RHS       C40       -1
    RHS       C45       -1
    RHS       C49       -1
    RHS       C51       -1
    RHS       C53       -1
    RHS       C55       -1
    RHS       C57       -1
    RHS       C58       -1
    RHS       C59       -1
    RHS       C62       -1
    RHS       C63       -1
    RHS       C64       -1
    RHS       C68       -1
    RHS       C72       -1
    RHS       C73       -1
    RHS       C74       -1
    RHS       C77       -1
    RHS       C78       -1
    RHS       C79       -1
    RHS       C80       -1
    RHS       C82       -1
    RHS       C83       -1
    RHS       C84       -1
    RHS       C86       -1
    RHS       C89       -1
    RHS       C91       -1
    RHS       C97       -1
    RHS       C100      -1
    RHS       C101      -1
    RHS       C102      -1
    RHS       C104      -1
    RHS       C105      -1
    RHS       C107      -1
    RHS       C108      -1
    RHS       C109      -1
    RHS       C110      -1
    RHS       C111      -1
    RHS       C115      -1
    RHS       C116      -1
    RHS       C121      -1
    RHS       C122      -1
    RHS       C128      -1
    RHS       C129      -1
    RHS       C130      -1
    RHS       C132      -1
    RHS       C133      -1
    RHS       C134      -1
    RHS       C135      -1
    RHS       C140      -1
    RHS       C141      -1
    RHS       C146      -1
    RHS       C148      -1
    RHS       C149      -1
    RHS       C151      -1
    RHS       C152      -1
    RHS       C154      -1
    RHS       C160      -1
    RHS       C161      -1
    RHS       C162      -1
    RHS       C166      -1
    RHS       C169      -1
    RHS       C174      -1
    RHS       C177      -1
    RHS       C178      -1
    RHS       C179      -1
    RHS       C181      -1
    RHS       C182      -1
    RHS       C184      -1
    RHS       C187      -1
    RHS       C189      -1
    RHS       C190      -1
    RHS       C191      -1
    RHS       C192      -1
    RHS       C193      -1
    RHS       C194      -1
    RHS       C195      -1
    RHS       C198      -1
    RHS       C199      -1
    RHS       C202      -1
    RHS       C204      -1
    RHS       C205      -1
    RHS       C206      -1
    RHS       C209      -1
    RHS       C210      -1
    RHS       C211      -1
    RHS       C213      -1
    RHS       C215      -1
    RHS       C217      -1
    RHS       C218      -1
    RHS       C219      -1
    RHS       C220      -1
    RHS       C221      -1
    RHS       C222      -1
    RHS       C223      -1
    RHS       C225      -1
    RHS       C229      -1
    RHS       C230      -1
    RHS       C231      -1
    RHS       C234      -1
    RHS       C237      -1
    RHS       C238      -1
    RHS       C239      -1
    RHS       C240      -1
    RHS       C241      -1
    RHS       C242      -1
    RHS       C243      -1
    RHS       C245      -1
    RHS       C246      -1
    RHS       C247      -1
    RHS       C249      -1
    RHS       C250      -1
    RHS       C253      -1
    RHS       C254      -1
    RHS       C255      -1
    RHS       C257      -1
    RHS       C258      -1
    RHS       C261      -1
    RHS       C262      -1
    RHS       C263      -1
    RHS       C267      -1
    RHS       C268      -1
    RHS       C269      -1
    RHS       C280      -1
    RHS       C281      -1
    RHS       C283      -1
    RHS       C284      -1
    RHS       C286      -1
    RHS       C289      -1
    RHS       C290      -1
    RHS       C291      -1
    RHS       C292      -1
    RHS       C293      -1
    RHS       C294      -1
    RHS       C296      -1
    RHS       C297      -1
    RHS       C299      -1
    RHS       C300      -1
    RHS       C302      -1
    RHS       C303      -1
    RHS       C304      -1
    RHS       C305      -1
    RHS       C306      -1
    RHS       C310      -1
    RHS       C312      -1
    RHS       C315      -1
    RHS       C322      -1
    RHS       C324      -1
    RHS       C325      -1
    RHS       C326      -1
    RHS       C327      -1
    RHS       C328      -1
    RHS       C329      -1
    RHS       C330      -1
    RHS       C331      -1
    RHS       C333      -1
    RHS       C335      -1
    RHS       C341      -1
    RHS       C342      -1
    RHS       C343      -1
    RHS       C344      -1
    RHS       C345      -1
    RHS       C347      -1
    RHS       C348      -1
    RHS       C352      -1
    RHS       C356      -1
    RHS       C357      -1
    RHS       C358      -1
    RHS       C359      -1
    RHS       C360      -1
    RHS       C365      -1
    RHS       C366      -1
    RHS       C372      -1
    RHS       C373      -1
    RHS       C374      -1
    RHS       C376      -1
    RHS       C377      -1
    RHS       C380      -1
    RHS       C381      -1
    RHS       C382      -1
    RHS       C383      -1
    RHS       C384      -1
    RHS       C385      -1
    RHS       C386      -1
    RHS       C387      -1
    RHS       C388      -1
    RHS       C389      -1
    RHS       C390      -1
    RHS       C393      -1
    RHS       C394      -1
    RHS       C397      -1
    RHS       C398      -1
    RHS       C399      -1
BOUNDS
 UP BOUND     x3        1
 UP BOUND     x7        1
 UP BOUND     x8        1
 UP BOUND     x9        1
 UP BOUND     x10       1
 UP BOUND     x11       1
 UP BOUND     x12       1
 UP BOUND     x13       1
 UP BOUND     x15       1
 UP BOUND     x17       1
 UP BOUND     x18       1
 UP BOUND     x19       1
 UP BOUND     x20       1
 UP BOUND     x23       1
 UP BOUND     x24       1
 UP BOUND     x26       1
 UP BOUND     x29       1
 UP BOUND     x31       1
 UP BOUND     x33       1
 UP BOUND     x35       1
 UP BOUND     x37       1
 UP BOUND     x38       1
 UP BOUND     x40       1
 UP BOUND     x41       1
 UP BOUND     x42       1
 UP BOUND     x43       1
 UP BOUND     x45       1
 UP BOUND     x46       1
 UP BOUND     x48       1
 UP BOUND     x50       1
 UP BOUND     x51       1
 UP BOUND     x52       1
 UP BOUND     x54       1
 UP BOUND     x56       1
 UP BOUND     x59       1
 UP BOUND     x61       1
 UP BOUND     x63       1
 UP BOUND     x66       1
 UP BOUND     x71       1
 UP BOUND     x72       1
 UP BOUND     x74       1
 UP BOUND     x75       1
 UP BOUND     x77       1
 UP BOUND     x78       1
 UP BOUND     x80       1
 UP BOUND     x82       1
 UP BOUND     x84       1
 UP BOUND     x88       1
 UP BOUND     x89       1
 UP BOUND     x90       1
 UP BOUND     x91       1
 UP BOUND     x92       1
 UP BOUND     x93       1
 UP BOUND     x94       1
 UP BOUND     x99       1
 UP BOUND     x100      1
 UP BOUND     x101      1
 UP BOUND     x102      1
 UP BOUND     x103      1
 UP BOUND     x104      1
 UP BOUND     x106      1
 UP BOUND     x108      1
 UP BOUND     x110      1
 UP BOUND     x111      1
 UP BOUND     x112      1
 UP BOUND     x113      1
 UP BOUND     x115      1
 UP BOUND     x116      1
 UP BOUND     x119      1
 UP BOUND     x120      1
 UP BOUND     x121      1
 UP BOUND     x122      1
 UP BOUND     x123      1
 UP BOUND     x126      1
 UP BOUND     x128      1
 UP BOUND     x131      1
 UP BOUND     x132      1
 UP BOUND     x133      1
 UP BOUND     x134      1
 UP BOUND     x137      1
 UP BOUND     x138      1
 UP BOUND     x139      1
 UP BOUND     x141      1
 UP BOUND     x142      1
 UP BOUND     x146      1
 UP BOUND     x147      1
 UP BOUND     x148      1
 UP BOUND     x150      1
 UP BOUND     x152      1
 UP BOUND     x153      1
 UP BOUND     x155      1
 UP BOUND     x156      1
 UP BOUND     x157      1
 UP BOUND     x160      1
 UP BOUND     x161      1
 UP BOUND     x163      1
 UP BOUND     x168      1
 UP BOUND     x169      1
 UP BOUND     x170      1
 UP BOUND     x172      1
 UP BOUND     x173      1
 UP BOUND     x177      1
 UP BOUND     x180      1
 UP BOUND     x181      1
 UP BOUND     x182      1
 UP BOUND     x183      1
 UP BOUND     x184      1
 UP BOUND     x185      1
 UP BOUND     x186      1
 UP BOUND     x187      1
 UP BOUND     x190      1
 UP BOUND     x191      1
 UP BOUND     x192      1
 UP BOUND     x193      1
 UP BOUND     x194      1
 UP BOUND     x198      1
 UP BOUND     x202      1
 UP BOUND     x204      1
 UP BOUND     x206      1
 UP BOUND     x209      1
 UP BOUND     x212      1
 UP BOUND     x215      1
 UP BOUND     x219      1
 UP BOUND     x220      1
 UP BOUND     x221      1
 UP BOUND     x222      1
 UP BOUND     x223      1
 UP BOUND     x229      1
 UP BOUND     x230      1
 UP BOUND     x231      1
 UP BOUND     x234      1
 UP BOUND     x237      1
 UP BOUND     x239      1
 UP BOUND     x240      1
 UP BOUND     x241      1
 UP BOUND     x242      1
 UP BOUND     x243      1
 UP BOUND     x247      1
 UP BOUND     x248      1
 UP BOUND     x249      1
 UP BOUND     x253      1
 UP BOUND     x254      1
 UP BOUND     x257      1
 UP BOUND     x258      1
 UP BOUND     x259      1
 UP BOUND     x260      1
 UP BOUND     x263      1
 UP BOUND     x265      1
 UP BOUND     x270      1
 UP BOUND     x273      1
 UP BOUND     x274      1
 UP BOUND     x278      1
 UP BOUND     x281      1
 UP BOUND     x282      1
 UP BOUND     x283      1
 UP BOUND     x284      1
 UP BOUND     x285      1
 UP BOUND     x297      1
 UP BOUND     x298      1
 UP BOUND     x300      1
 UP BOUND     x302      1
 UP BOUND     x303      1
 UP BOUND     x304      1
 UP BOUND     x306      1
 UP BOUND     x309      1
 UP BOUND     x311      1
 UP BOUND     x314      1
 UP BOUND     x316      1
 UP BOUND     x318      1
 UP BOUND     x325      1
 UP BOUND     x327      1
 UP BOUND     x329      1
 UP BOUND     x332      1
 UP BOUND     x333      1
 UP BOUND     x334      1
 UP BOUND     x336      1
 UP BOUND     x337      1
 UP BOUND     x338      1
 UP BOUND     x339      1
 UP BOUND     x340      1
 UP BOUND     x342      1
 UP BOUND     x344      1
 UP BOUND     x345      1
 UP BOUND     x347      1
 UP BOUND     x348      1
 UP BOUND     x353      1
 UP BOUND     x354      1
 UP BOUND     x357      1
 UP BOUND     x358      1
 UP BOUND     x361      1
 UP BOUND     x362      1
 UP BOUND     x369      1
 UP BOUND     x373      1
 UP BOUND     x376      1
 UP BOUND     x377      1
 UP BOUND     x379      1
 UP BOUND     x384      1
 UP BOUND     x387      1
 UP BOUND     x389      1
 UP BOUND     x391      1
 UP BOUND     x392      1
 UP BOUND     x393      1
 UP BOUND     x394      1
 UP BOUND     x395      1
 UP BOUND     x396      1
 UP BOUND     x398      1
 UP BOUND     x399      1
ENDATA
